certificates/rado_a5_c4_N12.cnf
c Rad2 upper bound instance: x1 + 5*x2 - x3 = 4, interval [1,12]
p cnf 12 36
1 2 0
-1 -2 0
1 2 7 0
-1 -2 -7 0
1 3 12 0
-1 -3 -12 0
1 2 3 0
-1 -2 -3 0
2 8 0
-2 -8 0
1 3 4 0
-1 -3 -4 0
2 3 9 0
-2 -3 -9 0
1 4 5 0
-1 -4 -5 0
2 4 10 0
-2 -4 -10 0
1 5 6 0
-1 -5 -6 0
2 5 11 0
-2 -5 -11 0
1 6 7 0
-1 -6 -7 0
2 6 12 0
-2 -6 -12 0
1 7 8 0
-1 -7 -8 0
1 8 9 0
-1 -8 -9 0
1 9 10 0
-1 -9 -10 0
1 10 11 0
-1 -10 -11 0
1 11 12 0
-1 -11 -12 0
