certificates/rado_a5_c4_N12.drat
-11 -12 0
d -11 -1 -12 0
5 6 11 0
-2 11 0
-12 0
11 0
2 0
-1 0
-8 0
-5 0
3 0
9 0
7 0
6 0
4 0
0
